
Welcome to IBM(R) ILOG(R) CPLEX(R) Interactive Optimizer 22.1.1.0
  with Simplex, Mixed Integer & Barrier Optimizers
5725-A06 5725-A29 5724-Y48 5724-Y49 5724-Y54 5724-Y55 5655-Y21
Copyright IBM Corp. 1988, 2022.  All Rights Reserved.

Type 'help' for a list of available commands.
Type 'help' followed by a command name for more
information on commands.

CPLEX> Selected objective sense:  MINIMIZE
Selected objective  name:  00000000
Selected RHS        name:  RHS1
Selected bound      name:  BOUND
Problem 'ee.mps' read.
Read time = 0.03 sec. (3.17 ticks)
CPLEX> New value for time limit in seconds: 7200
CPLEX> New value for parallel optimization mode: -1
CPLEX> New value for default parallel thread count: 40
CPLEX> New value for mixed integer optimality gap tolerance: 1e-13
CPLEX> Version identifier: 22.1.1.0 | 2022-11-28 | 9160aff4d
CPXPARAM_Threads                                 40
CPXPARAM_Parallel                                -1
CPXPARAM_TimeLimit                               7200
CPXPARAM_MIP_Tolerances_MIPGap                   1e-13
Found incumbent of value 0.000000 after 0.00 sec. (0.31 ticks)
Tried aggregator 2 times.
MIP Presolve eliminated 183 rows and 2745 columns.
MIP Presolve modified 6090 coefficients.
Aggregator did 713 substitutions.
Reduced MIP has 3636 rows, 7840 columns, and 28953 nonzeros.
Reduced MIP has 7840 binaries, 0 generals, 0 SOSs, and 0 indicators.
Presolve time = 0.07 sec. (69.13 ticks)
Probing time = 0.03 sec. (5.33 ticks)
Tried aggregator 1 time.
Detecting symmetries...
Reduced MIP has 3636 rows, 7840 columns, and 28953 nonzeros.
Reduced MIP has 7840 binaries, 0 generals, 0 SOSs, and 0 indicators.
Presolve time = 0.02 sec. (22.09 ticks)
Probing time = 0.02 sec. (5.12 ticks)
Clique table members: 18788.
MIP emphasis: balance optimality and feasibility.
MIP search method: dynamic search.
Parallel mode: opportunistic, using up to 40 threads.
Root relaxation solution time = 0.09 sec. (67.14 ticks)

        Nodes                                         Cuts/
   Node  Left     Objective  IInf  Best Integer    Best Bound    ItCnt     Gap

*     0+    0                            0.0000  -1.54000e+13              --- 
*     0+    0                      -3.60000e+12  -1.54000e+13           327.78%
*     0+    0                      -4.80000e+12  -1.54000e+13           220.83%
*     0+    0                      -4.80000e+12  -1.54000e+13           220.83%
*     0+    0                      -6.00000e+12  -1.54000e+13           156.67%
      0     0  -1.53900e+13   113  -6.00000e+12  -1.53900e+13     1912  156.50%
*     0+    0                      -1.53900e+13  -1.53900e+13             0.00%
      0     0  -1.53900e+13   197  -1.53900e+13      Cuts: 96     2761    0.00%
      0     0  -1.53900e+13   188  -1.53900e+13      Cuts: 76     3087    0.00%
      0     0  -1.53900e+13   194  -1.53900e+13      Cuts: 70     3224    0.00%
*     0+    0                      -1.53900e+13  -1.53900e+13             0.00%
*     0+    0                      -1.53900e+13  -1.53900e+13             0.00%
      0     0  -1.00000e+75     0  -1.53900e+13  -1.53900e+13     3224    0.00%
      0     2  -1.53900e+13   194  -1.53900e+13  -1.53900e+13     3224    0.00%
Elapsed time = 2.73 sec. (1404.51 ticks, tree = 0.02 MB, solutions = 8)
*    27+   38                      -1.53900e+13  -1.53900e+13             0.00%
     90    58  -1.53900e+13   245  -1.53900e+13  -1.53900e+13    26450    0.00%
    256    89  -1.53900e+13   169  -1.53900e+13  -1.53900e+13    51744    0.00%
    498    85  -1.53900e+13   247  -1.53900e+13  -1.53900e+13    49153    0.00%
    743   261  -1.53900e+13   237  -1.53900e+13  -1.53900e+13   158730    0.00%
    989   179        cutoff        -1.53900e+13  -1.53900e+13   106617    0.00%
   1189   255  -1.53900e+13   121  -1.53900e+13  -1.53900e+13   150425    0.00%
   1351   360  -1.53900e+13   262  -1.53900e+13  -1.53900e+13   226806    0.00%
   1534   370        cutoff        -1.53900e+13  -1.53900e+13   231305    0.00%
   1708   498        cutoff        -1.53900e+13  -1.53900e+13   357418    0.00%
   2170   568        cutoff        -1.53900e+13  -1.53900e+13   451482    0.00%
Elapsed time = 8.68 sec. (4514.71 ticks, tree = 1.31 MB, solutions = 9)
   2487   733  -1.53900e+13   253  -1.53900e+13  -1.53900e+13   860283    0.00%
   3002   967  -1.53900e+13    27  -1.53900e+13  -1.53900e+13  1096363    0.00%
   3854   973        cutoff        -1.53900e+13  -1.53900e+13  1108102    0.00%
   4664  1262  -1.53900e+13   227  -1.53900e+13  -1.53900e+13  1312009    0.00%
   5397  1051  -1.53900e+13   222  -1.53900e+13  -1.53900e+13  1163489    0.00%
   6034  1231        cutoff        -1.53900e+13  -1.53900e+13  1288483    0.00%
   6572  1434  -1.53900e+13   408  -1.53900e+13  -1.53900e+13  1402360    0.00%
   7105  1692  -1.53900e+13    64  -1.53900e+13  -1.53900e+13  1646079    0.00%
   7876  2041        cutoff        -1.53900e+13  -1.53900e+13  1933527    0.00%
   8611  2119        cutoff        -1.53900e+13  -1.53900e+13  2013938    0.00%
Elapsed time = 25.97 sec. (14066.25 ticks, tree = 23.03 MB, solutions = 9)
   9247  2021  -1.53900e+13   164  -1.53900e+13  -1.53900e+13  1921519    0.00%
   9634  2583        cutoff        -1.53900e+13  -1.53900e+13  2954154    0.00%
  10003  2281        cutoff        -1.53900e+13  -1.53900e+13  2084963    0.00%
  10291  2394        cutoff        -1.53900e+13  -1.53900e+13  2222293    0.00%
  10552  2526        cutoff        -1.53900e+13  -1.53900e+13  2420489    0.00%
  10757  2477        cutoff        -1.53900e+13  -1.53900e+13  2607310    0.00%
  10914  2540  -1.53900e+13   139  -1.53900e+13  -1.53900e+13  2659562    0.00%
  11096  2661        cutoff        -1.53900e+13  -1.53900e+13  2803262    0.00%
  11289  2534        cutoff        -1.53900e+13  -1.53900e+13  3015402    0.00%
  11523  2579  -1.53900e+13   227  -1.53900e+13  -1.53900e+13  2962834    0.00%
Elapsed time = 29.84 sec. (23649.66 ticks, tree = 36.79 MB, solutions = 9)
  11665  2451        cutoff        -1.53900e+13  -1.53900e+13  3139117    0.00%

Performing restart 1

Repeating presolve.
Tried aggregator 2 times.
MIP Presolve eliminated 28 rows and 24 columns.
MIP Presolve modified 1867 coefficients.
Aggregator did 6 substitutions.
Reduced MIP has 3526 rows, 7810 columns, and 28257 nonzeros.
Reduced MIP has 7810 binaries, 0 generals, 0 SOSs, and 0 indicators.
Presolve time = 0.04 sec. (30.80 ticks)
Tried aggregator 2 times.
MIP Presolve eliminated 15 rows and 42 columns.
MIP Presolve modified 28 coefficients.
Aggregator did 12 substitutions.
Reduced MIP has 3499 rows, 7750 columns, and 28039 nonzeros.
Reduced MIP has 7750 binaries, 0 generals, 0 SOSs, and 0 indicators.
Presolve time = 0.06 sec. (53.34 ticks)
Represolve time = 0.24 sec. (144.27 ticks)
  11689     0  -1.53900e+13   279  -1.53900e+13      Cuts: 42  3348732    0.00%
  11689     0  -1.53900e+13   264  -1.53900e+13      Cuts: 28  3349016    0.00%
  11689     0  -1.53900e+13   375  -1.53900e+13      Cuts: 28  3349192    0.00%
  11689     0  -1.53900e+13   440  -1.53900e+13      Cuts: 39  3349585    0.00%
  11689     0  -1.53900e+13   443  -1.53900e+13      Cuts: 36  3349942    0.00%
  11689     0  -1.53900e+13   424  -1.53900e+13      Cuts: 37  3350065    0.00%
  11689     0  -1.53900e+13   441  -1.53900e+13      Cuts: 30  3350276    0.00%
  11689    11        cutoff        -1.53900e+13  -1.53900e+13  3388768    0.00%
  12180    16  -1.53900e+13   108  -1.53900e+13  -1.53900e+13  3502640    0.00%
  12857    17        cutoff        -1.53900e+13  -1.53900e+13  3475873    0.00%
  13104    22  -1.53900e+13   209  -1.53900e+13  -1.53900e+13  3428344    0.00%
  13238    30        cutoff        -1.53900e+13  -1.53900e+13  3482612    0.00%
  13316    26  -1.53900e+13   234  -1.53900e+13  -1.53900e+13  3484416    0.00%
  13440    13        cutoff        -1.53900e+13  -1.53900e+13  3537088    0.00%

GUB cover cuts applied:  5
Clique cuts applied:  14
Cover cuts applied:  478
Flow cuts applied:  4
Mixed integer rounding cuts applied:  19
Zero-half cuts applied:  71
Lift and project cuts applied:  4
Gomory fractional cuts applied:  28

Root node processing (before b&c):
  Real time             =    1.63 sec. (1385.93 ticks)
Parallel b&c, 40 threads:
  Real time             =   49.40 sec. (35112.70 ticks)
  Sync time (average)   =   13.33 sec.
  Wait time (average)   =    0.10 sec.
                          ------------
Total (root+branch&cut) =   51.03 sec. (36498.63 ticks)

Solution pool: 9 solutions saved.

MIP - Integer optimal solution:  Objective = -1.5389998189e+13
Solution time =   51.17 sec.  Iterations = 3540266  Nodes = 13454
Deterministic time = 36498.66 ticks  (713.25 ticks/sec)

CPLEX> Solution 'p10' written to file 'ee.sol'.
CPLEX> 